c File: flat50_3_0.col
c
c SOURCE: Joseph Culberson (joe@cs.ualberta.ca)
c DESCRIPTION: Quasi-random coloring problem
c              generated with flatness = 0
c                             probability = 0.139
c                             known coloring = 3
c                             random seed = 1983
c              Creation Date:  Tue Jun  9 12:22:45 1998
c Maximum degree = 8 Minimum degree = 1
c p edge 50 115
c cnf created by edge2cnf
p cnf 150 545
-1 -2 0
-1 -3 0
-2 -3 0
1 2 3 0
-4 -5 0
-4 -6 0
-5 -6 0
4 5 6 0
-7 -8 0
-7 -9 0
-8 -9 0
7 8 9 0
-10 -11 0
-10 -12 0
-11 -12 0
10 11 12 0
-13 -14 0
-13 -15 0
-14 -15 0
13 14 15 0
-16 -17 0
-16 -18 0
-17 -18 0
16 17 18 0
-19 -20 0
-19 -21 0
-20 -21 0
19 20 21 0
-22 -23 0
-22 -24 0
-23 -24 0
22 23 24 0
-25 -26 0
-25 -27 0
-26 -27 0
25 26 27 0
-28 -29 0
-28 -30 0
-29 -30 0
28 29 30 0
-31 -32 0
-31 -33 0
-32 -33 0
31 32 33 0
-34 -35 0
-34 -36 0
-35 -36 0
34 35 36 0
-37 -38 0
-37 -39 0
-38 -39 0
37 38 39 0
-40 -41 0
-40 -42 0
-41 -42 0
40 41 42 0
-43 -44 0
-43 -45 0
-44 -45 0
43 44 45 0
-46 -47 0
-46 -48 0
-47 -48 0
46 47 48 0
-49 -50 0
-49 -51 0
-50 -51 0
49 50 51 0
-52 -53 0
-52 -54 0
-53 -54 0
52 53 54 0
-55 -56 0
-55 -57 0
-56 -57 0
55 56 57 0
-58 -59 0
-58 -60 0
-59 -60 0
58 59 60 0
-61 -62 0
-61 -63 0
-62 -63 0
61 62 63 0
-64 -65 0
-64 -66 0
-65 -66 0
64 65 66 0
-67 -68 0
-67 -69 0
-68 -69 0
67 68 69 0
-70 -71 0
-70 -72 0
-71 -72 0
70 71 72 0
-73 -74 0
-73 -75 0
-74 -75 0
73 74 75 0
-76 -77 0
-76 -78 0
-77 -78 0
76 77 78 0
-79 -80 0
-79 -81 0
-80 -81 0
79 80 81 0
-82 -83 0
-82 -84 0
-83 -84 0
82 83 84 0
-85 -86 0
-85 -87 0
-86 -87 0
85 86 87 0
-88 -89 0
-88 -90 0
-89 -90 0
88 89 90 0
-91 -92 0
-91 -93 0
-92 -93 0
91 92 93 0
-94 -95 0
-94 -96 0
-95 -96 0
94 95 96 0
-97 -98 0
-97 -99 0
-98 -99 0
97 98 99 0
-100 -101 0
-100 -102 0
-101 -102 0
100 101 102 0
-103 -104 0
-103 -105 0
-104 -105 0
103 104 105 0
-106 -107 0
-106 -108 0
-107 -108 0
106 107 108 0
-109 -110 0
-109 -111 0
-110 -111 0
109 110 111 0
-112 -113 0
-112 -114 0
-113 -114 0
112 113 114 0
-115 -116 0
-115 -117 0
-116 -117 0
115 116 117 0
-118 -119 0
-118 -120 0
-119 -120 0
118 119 120 0
-121 -122 0
-121 -123 0
-122 -123 0
121 122 123 0
-124 -125 0
-124 -126 0
-125 -126 0
124 125 126 0
-127 -128 0
-127 -129 0
-128 -129 0
127 128 129 0
-130 -131 0
-130 -132 0
-131 -132 0
130 131 132 0
-133 -134 0
-133 -135 0
-134 -135 0
133 134 135 0
-136 -137 0
-136 -138 0
-137 -138 0
136 137 138 0
-139 -140 0
-139 -141 0
-140 -141 0
139 140 141 0
-142 -143 0
-142 -144 0
-143 -144 0
142 143 144 0
-145 -146 0
-145 -147 0
-146 -147 0
145 146 147 0
-148 -149 0
-148 -150 0
-149 -150 0
148 149 150 0
-70 -1 0
-71 -2 0
-72 -3 0
-88 -1 0
-89 -2 0
-90 -3 0
-109 -1 0
-110 -2 0
-111 -3 0
-124 -1 0
-125 -2 0
-126 -3 0
-142 -1 0
-143 -2 0
-144 -3 0
-76 -4 0
-77 -5 0
-78 -6 0
-94 -4 0
-95 -5 0
-96 -6 0
-112 -4 0
-113 -5 0
-114 -6 0
-55 -7 0
-56 -8 0
-57 -9 0
-58 -7 0
-59 -8 0
-60 -9 0
-73 -7 0
-74 -8 0
-75 -9 0
-91 -7 0
-92 -8 0
-93 -9 0
-109 -7 0
-110 -8 0
-111 -9 0
-115 -7 0
-116 -8 0
-117 -9 0
-133 -7 0
-134 -8 0
-135 -9 0
-148 -7 0
-149 -8 0
-150 -9 0
-73 -10 0
-74 -11 0
-75 -12 0
-109 -10 0
-110 -11 0
-111 -12 0
-118 -10 0
-119 -11 0
-120 -12 0
-124 -10 0
-125 -11 0
-126 -12 0
-133 -10 0
-134 -11 0
-135 -12 0
-55 -13 0
-56 -14 0
-57 -15 0
-121 -13 0
-122 -14 0
-123 -15 0
-139 -13 0
-140 -14 0
-141 -15 0
-61 -16 0
-62 -17 0
-63 -18 0
-64 -16 0
-65 -17 0
-66 -18 0
-124 -16 0
-125 -17 0
-126 -18 0
-136 -16 0
-137 -17 0
-138 -18 0
-139 -16 0
-140 -17 0
-141 -18 0
-142 -16 0
-143 -17 0
-144 -18 0
-82 -19 0
-83 -20 0
-84 -21 0
-88 -19 0
-89 -20 0
-90 -21 0
-115 -19 0
-116 -20 0
-117 -21 0
-127 -19 0
-128 -20 0
-129 -21 0
-133 -19 0
-134 -20 0
-135 -21 0
-145 -19 0
-146 -20 0
-147 -21 0
-67 -22 0
-68 -23 0
-69 -24 0
-97 -22 0
-98 -23 0
-99 -24 0
-106 -22 0
-107 -23 0
-108 -24 0
-112 -22 0
-113 -23 0
-114 -24 0
-142 -25 0
-143 -26 0
-144 -27 0
-64 -28 0
-65 -29 0
-66 -30 0
-88 -28 0
-89 -29 0
-90 -30 0
-94 -28 0
-95 -29 0
-96 -30 0
-100 -28 0
-101 -29 0
-102 -30 0
-133 -28 0
-134 -29 0
-135 -30 0
-58 -31 0
-59 -32 0
-60 -33 0
-82 -31 0
-83 -32 0
-84 -33 0
-109 -31 0
-110 -32 0
-111 -33 0
-112 -31 0
-113 -32 0
-114 -33 0
-124 -31 0
-125 -32 0
-126 -33 0
-136 -31 0
-137 -32 0
-138 -33 0
-52 -34 0
-53 -35 0
-54 -36 0
-64 -34 0
-65 -35 0
-66 -36 0
-82 -34 0
-83 -35 0
-84 -36 0
-85 -34 0
-86 -35 0
-87 -36 0
-115 -34 0
-116 -35 0
-117 -36 0
-58 -37 0
-59 -38 0
-60 -39 0
-76 -37 0
-77 -38 0
-78 -39 0
-79 -37 0
-80 -38 0
-81 -39 0
-97 -37 0
-98 -38 0
-99 -39 0
-112 -37 0
-113 -38 0
-114 -39 0
-61 -40 0
-62 -41 0
-63 -42 0
-73 -40 0
-74 -41 0
-75 -42 0
-82 -40 0
-83 -41 0
-84 -42 0
-91 -40 0
-92 -41 0
-93 -42 0
-76 -43 0
-77 -44 0
-78 -45 0
-79 -43 0
-80 -44 0
-81 -45 0
-118 -43 0
-119 -44 0
-120 -45 0
-76 -46 0
-77 -47 0
-78 -48 0
-100 -46 0
-101 -47 0
-102 -48 0
-106 -46 0
-107 -47 0
-108 -48 0
-139 -46 0
-140 -47 0
-141 -48 0
-148 -46 0
-149 -47 0
-150 -48 0
-91 -49 0
-92 -50 0
-93 -51 0
-94 -49 0
-95 -50 0
-96 -51 0
-121 -49 0
-122 -50 0
-123 -51 0
-112 -52 0
-113 -53 0
-114 -54 0
-130 -52 0
-131 -53 0
-132 -54 0
-145 -52 0
-146 -53 0
-147 -54 0
-103 -55 0
-104 -56 0
-105 -57 0
-115 -55 0
-116 -56 0
-117 -57 0
-148 -55 0
-149 -56 0
-150 -57 0
-127 -58 0
-128 -59 0
-129 -60 0
-130 -58 0
-131 -59 0
-132 -60 0
-109 -61 0
-110 -62 0
-111 -63 0
-115 -61 0
-116 -62 0
-117 -63 0
-121 -61 0
-122 -62 0
-123 -63 0
-124 -61 0
-125 -62 0
-126 -63 0
-133 -64 0
-134 -65 0
-135 -66 0
-145 -64 0
-146 -65 0
-147 -66 0
-130 -67 0
-131 -68 0
-132 -69 0
-106 -70 0
-107 -71 0
-108 -72 0
-112 -70 0
-113 -71 0
-114 -72 0
-139 -70 0
-140 -71 0
-141 -72 0
-106 -73 0
-107 -74 0
-108 -75 0
-109 -73 0
-110 -74 0
-111 -75 0
-139 -73 0
-140 -74 0
-141 -75 0
-115 -76 0
-116 -77 0
-117 -78 0
-124 -76 0
-125 -77 0
-126 -78 0
-145 -76 0
-146 -77 0
-147 -78 0
-139 -79 0
-140 -80 0
-141 -81 0
-106 -82 0
-107 -83 0
-108 -84 0
-148 -82 0
-149 -83 0
-150 -84 0
-127 -85 0
-128 -86 0
-129 -87 0
-136 -88 0
-137 -89 0
-138 -90 0
-142 -91 0
-143 -92 0
-144 -93 0
-103 -94 0
-104 -95 0
-105 -96 0
-139 -94 0
-140 -95 0
-141 -96 0
-109 -97 0
-110 -98 0
-111 -99 0
-133 -97 0
-134 -98 0
-135 -99 0
-136 -97 0
-137 -98 0
-138 -99 0
-148 -97 0
-149 -98 0
-150 -99 0
-121 -100 0
-122 -101 0
-123 -102 0
-127 -100 0
-128 -101 0
-129 -102 0
